p wcnf 145 218 219 
1 140 141 0 
1 -78 29 0 
1 121 57 0 
1 3 -36 0 
1 -64 -141 0 
1 98 51 0 
1 12 110 0 
1 37 39 0 
1 36 -41 0 
1 2 117 0 
1 -71 -43 0 
1 -133 58 0 
1 5 59 0 
1 3 -114 0 
1 -30 -52 0 
1 18 25 0 
1 -4 -10 0 
1 103 19 0 
1 -97 -90 0 
1 19 26 0 
1 -116 -114 0 
1 98 14 0 
1 -105 27 0 
1 124 -30 0 
1 -130 109 0 
1 119 -41 0 
1 -117 -93 0 
1 -133 -47 0 
1 42 96 0 
1 -65 -19 0 
1 -102 87 0 
1 71 39 0 
1 38 -102 0 
1 -37 8 0 
1 137 -121 0 
1 -16 90 0 
1 138 -20 0 
1 21 14 0 
1 100 123 0 
1 93 112 0 
1 -35 119 0 
1 -118 -80 0 
1 64 115 0 
1 101 45 0 
1 138 53 0 
1 74 -122 0 
1 49 139 0 
1 -121 120 0 
1 128 72 0 
1 12 83 0 
1 12 -70 0 
1 -18 68 0 
1 -104 -84 0 
1 -41 79 0 
1 94 118 0 
1 114 95 0 
1 -16 -71 0 
1 -10 23 0 
1 140 -115 0 
1 -69 121 0 
1 96 -71 0 
1 -142 -128 0 
1 55 67 0 
1 115 145 0 
1 -38 93 0 
1 142 18 0 
1 87 142 0 
1 51 124 0 
1 69 -30 0 
1 -130 85 0 
1 -6 -9 0 
1 -118 88 0 
1 -143 21 0 
1 -137 48 0 
1 -61 7 0 
1 -93 43 0 
1 15 134 0 
1 27 42 0 
1 117 -107 0 
1 44 47 0 
1 145 -95 0 
1 -100 -91 0 
1 -95 -115 0 
1 -8 51 0 
1 144 -80 0 
1 129 -48 0 
1 -23 -78 0 
1 -43 56 0 
1 -33 124 0 
1 62 -48 0 
1 -4 -11 0 
1 -73 117 0 
1 -14 -127 0 
1 64 -128 0 
1 -92 -66 0 
1 -94 -43 0 
1 60 33 0 
1 -27 17 0 
1 3 -95 0 
1 11 63 0 
1 58 -64 0 
1 -118 -121 0 
1 -96 -49 0 
1 -104 -105 0 
1 48 85 0 
1 -82 118 0 
1 117 125 0 
1 89 -74 0 
1 -111 84 0 
1 133 -131 0 
1 -95 -58 0 
1 99 39 0 
1 80 93 0 
1 139 91 0 
1 -112 8 0 
1 -44 -135 0 
1 114 47 0 
1 22 73 0 
1 112 -42 0 
1 99 -68 0 
1 -66 -33 0 
1 -101 9 0 
1 41 -42 0 
1 76 12 0 
1 50 -56 0 
1 -100 -13 0 
1 -111 128 0 
1 -46 4 0 
1 104 127 0 
1 41 -78 0 
1 31 -38 0 
1 24 58 0 
1 -142 7 0 
1 -72 140 0 
1 46 -2 0 
1 -142 -136 0 
1 136 82 0 
1 -113 -99 0 
1 -66 -82 0 
1 -14 138 0 
1 -31 79 0 
1 89 -133 0 
1 54 -27 0 
1 -71 57 0 
1 -33 47 0 
1 142 101 0 
1 72 -49 0 
1 83 17 0 
1 7 -126 0 
1 122 -13 0 
1 14 127 0 
1 -115 -51 0 
1 -29 100 0 
1 -29 -58 0 
1 -92 -133 0 
1 61 -98 0 
1 -16 -75 0 
1 -44 -73 0 
1 116 -67 0 
1 94 -59 0 
1 83 -47 0 
1 -92 -43 0 
1 14 5 0 
1 -112 -64 0 
1 -90 -49 0 
1 26 114 0 
1 46 138 0 
1 -119 -33 0 
1 52 10 0 
1 95 -138 0 
1 41 15 0 
1 -57 53 0 
1 115 9 0 
1 -77 136 0 
1 -125 -11 0 
1 97 95 0 
1 -75 88 0 
1 -4 35 0 
1 -89 22 0 
1 100 -17 0 
1 -55 44 0 
1 -83 95 0 
1 -125 -77 0 
1 34 -13 0 
1 55 -52 0 
1 106 96 0 
1 27 23 0 
1 -138 47 0 
1 -53 72 0 
1 -2 -57 0 
1 30 -10 0 
1 -54 129 0 
1 -88 -93 0 
1 -121 -10 0 
1 115 124 0 
1 -135 -96 0 
1 73 26 0 
1 132 -140 0 
1 -134 -21 0 
1 -72 53 0 
1 -104 70 0 
1 98 -135 0 
1 137 -14 0 
1 7 -102 0 
1 -105 95 0 
1 -65 3 0 
1 133 47 0 
1 135 41 0 
1 -90 108 0 
1 -82 -142 0 
1 -13 60 0 
1 -119 -83 0 
1 121 -13 0 
1 -2 64 0 
1 88 -118 0 
1 -52 99 0 
1 -37 -18 0 
1 58 104 0 
